instances/knapsack/discrete_knapsack_uncertainty/knapsack_130_15.lp
\ Model knapsack_130_15
\ LP format - for model browsing. Use MPS format to capture full model detail.
\ Signature: 0x8c644a484ac146d4
Minimize
  - 35 x[0] - 64 x[1] - 17 x[2] - 33 x[3] - 51 x[4] - 74 x[5] - 99 x[6]
   - 37 x[7] - 60 x[8] - 68 x[9] - 20 x[10] - 64 x[11] - 20 x[12]
   - 15 x[13] - 36 x[14] - 97 x[15] - 83 x[16] - 67 x[17] - 32 x[18]
   - 67 x[19] - 71 x[20] - 28 x[21] - 61 x[22] - 21 x[23] - 62 x[24]
   - 12 x[25] - 89 x[26] - 37 x[27] - 87 x[28] - 54 x[29] - 22 x[30]
   - 37 x[31] - 45 x[32] - 44 x[33] - 37 x[34] - 66 x[35] - 10 x[36]
   - 4 x[37] - 60 x[38] - 41 x[39] - 89 x[40] - 87 x[41] - 23 x[42]
   - 28 x[43] - 8 x[44] - 92 x[45] - 70 x[46] - 2 x[47] - 86 x[48]
   - 63 x[49] - 12 x[50] - 60 x[51] - 80 x[52] - 98 x[53] - 69 x[54]
   - 31 x[55] - 24 x[56] - 29 x[57] - 81 x[58] - 40 x[59] - 69 x[60]
   - 11 x[61] - 31 x[62] - 51 x[63] - 80 x[64] - 82 x[65] - 50 x[66]
   - 47 x[67] - 78 x[68] - 27 x[69] - 66 x[70] - 96 x[71] - 70 x[72]
   - 43 x[73] - 68 x[74] - 31 x[75] - 99 x[76] - 94 x[77] - 13 x[78]
   - 37 x[79] - 44 x[80] - 51 x[81] - 3 x[82] - 59 x[83] - 22 x[84]
   - 18 x[85] - 59 x[86] - 84 x[87] - x[88] - 96 x[89] - 59 x[90]
   - 99 x[91] - 31 x[92] - 94 x[93] - 33 x[94] - 64 x[95] - 82 x[96]
   - 81 x[97] - 18 x[98] - 90 x[99] - 34 x[100] - 79 x[101] - 52 x[102]
   - 71 x[103] - 36 x[104] - 92 x[105] - 23 x[106] - 10 x[107] - 35 x[108]
   - 74 x[109] - 71 x[110] - 19 x[111] - 39 x[112] - 77 x[113] - 39 x[114]
   - 42 x[115] - 56 x[116] - 86 x[117] - 55 x[118] - 100 x[119] - 23 x[120]
   - 4 x[121] - 95 x[122] - 40 x[123] - 13 x[124] - 38 x[125] - 94 x[126]
   - 99 x[127] - 85 x[128] - 58 x[129]
Subject To
 primal_upper: 5 x[0] + 53 x[1] + 47 x[2] + 96 x[3] + 49 x[4] + 39 x[5]
   + 82 x[6] + 77 x[7] + 6 x[8] + 7 x[9] + 9 x[10] + 64 x[11] + 29 x[12]
   + 61 x[13] + 38 x[14] + 10 x[15] + 38 x[16] + 57 x[17] + 38 x[18]
   + 19 x[19] + 42 x[20] + 81 x[21] + 33 x[22] + 68 x[23] + 14 x[24]
   + 9 x[25] + 31 x[26] + 17 x[27] + 95 x[28] + 96 x[29] + 59 x[30]
   + 25 x[31] + 73 x[32] + 78 x[33] + 85 x[34] + 86 x[35] + 61 x[36]
   + 50 x[37] + 65 x[38] + 88 x[39] + 80 x[40] + 47 x[41] + 43 x[42]
   + 59 x[43] + 72 x[44] + 24 x[45] + 19 x[46] + 27 x[47] + 92 x[48]
   + 53 x[49] + 56 x[50] + 41 x[51] + 50 x[52] + 93 x[53] + 34 x[54]
   + 93 x[55] + 10 x[56] + 48 x[57] + 93 x[58] + 39 x[59] + 2 x[60]
   + 80 x[61] + 33 x[62] + 64 x[63] + 5 x[64] + 33 x[65] + 66 x[66]
   + 12 x[67] + 57 x[68] + 27 x[69] + 11 x[70] + 19 x[71] + 79 x[72]
   + 32 x[73] + 13 x[74] + 46 x[75] + 100 x[76] + 20 x[77] + 58 x[78]
   + 84 x[79] + 15 x[80] + 87 x[81] + 80 x[82] + 27 x[83] + 31 x[84]
   + 19 x[85] + 81 x[86] + 33 x[87] + 43 x[88] + 80 x[89] + 38 x[90]
   + 22 x[91] + 90 x[92] + 13 x[93] + 81 x[94] + 62 x[95] + 58 x[96]
   + 2 x[97] + 65 x[98] + 37 x[99] + 38 x[100] + 69 x[101] + 79 x[102]
   + 49 x[103] + 62 x[104] + 67 x[105] + 24 x[106] + 32 x[107] + 80 x[108]
   + 6 x[109] + 96 x[110] + 72 x[111] + 54 x[112] + 42 x[113] + 14 x[114]
   + 16 x[115] + 12 x[116] + 18 x[117] + 70 x[118] + 94 x[119] + 33 x[120]
   + 42 x[121] + 89 x[122] + 84 x[123] + 42 x[124] + 72 x[125] + 25 x[126]
   + 61 x[127] + 96 x[128] + 100 x[129] + 0.5 r[0] + 5.3 r[1] + 4.7 r[2]
   + 9.6 r[3] + 4.9 r[4] + 3.9 r[5] + 8.2 r[6] + 7.7 r[7] + 0.6 r[8]
   + 0.7 r[9] + 0.9 r[10] + 6.4 r[11] + 2.9 r[12] + 6.1 r[13] + 3.8 r[14]
   + r[15] + 3.8 r[16] + 5.7 r[17] + 3.8 r[18] + 1.9 r[19] + 4.2 r[20]
   + 8.1 r[21] + 3.3 r[22] + 6.8 r[23] + 1.4 r[24] + 0.9 r[25] + 3.1 r[26]
   + 1.7 r[27] + 9.5 r[28] + 9.6 r[29] + 5.9 r[30] + 2.5 r[31] + 7.3 r[32]
   + 7.8 r[33] + 8.5 r[34] + 8.6 r[35] + 6.1 r[36] + 5 r[37] + 6.5 r[38]
   + 8.8 r[39] + 8 r[40] + 4.7 r[41] + 4.3 r[42] + 5.9 r[43] + 7.2 r[44]
   + 2.4 r[45] + 1.9 r[46] + 2.7 r[47] + 9.2 r[48] + 5.3 r[49] + 5.6 r[50]
   + 4.1 r[51] + 5 r[52] + 9.3 r[53] + 3.4 r[54] + 9.3 r[55] + r[56]
   + 4.8 r[57] + 9.3 r[58] + 3.9 r[59] + 0.2 r[60] + 8 r[61] + 3.3 r[62]
   + 6.4 r[63] + 0.5 r[64] + 3.3 r[65] + 6.6 r[66] + 1.2 r[67] + 5.7 r[68]
   + 2.7 r[69] + 1.1 r[70] + 1.9 r[71] + 7.9 r[72] + 3.2 r[73] + 1.3 r[74]
   + 4.6 r[75] + 10 r[76] + 2 r[77] + 5.8 r[78] + 8.4 r[79] + 1.5 r[80]
   + 8.7 r[81] + 8 r[82] + 2.7 r[83] + 3.1 r[84] + 1.9 r[85] + 8.1 r[86]
   + 3.3 r[87] + 4.3 r[88] + 8 r[89] + 3.8 r[90] + 2.2 r[91] + 9 r[92]
   + 1.3 r[93] + 8.1 r[94] + 6.2 r[95] + 5.8 r[96] + 0.2 r[97] + 6.5 r[98]
   + 3.7 r[99] + 3.8 r[100] + 6.9 r[101] + 7.9 r[102] + 4.9 r[103]
   + 6.2 r[104] + 6.7 r[105] + 2.4 r[106] + 3.2 r[107] + 8 r[108]
   + 0.6 r[109] + 9.6 r[110] + 7.2 r[111] + 5.4 r[112] + 4.2 r[113]
   + 1.4 r[114] + 1.6 r[115] + 1.2 r[116] + 1.8 r[117] + 7 r[118]
   + 9.4 r[119] + 3.3 r[120] + 4.2 r[121] + 8.9 r[122] + 8.4 r[123]
   + 4.2 r[124] + 7.2 r[125] + 2.5 r[126] + 6.1 r[127] + 9.6 r[128]
   + 10 r[129] <= 618
 primal_lower: 3.131159744037969 x[0] + 0.9324183037927067 x[1]
   + 2.718535948563843 x[2] + 4.299381103014127 x[3]
   + 1.80010476758887 x[4] + 4.287972383444695 x[5]
   + 2.447673250504459 x[6] + 4.414419946611433 x[7]
   + 2.156412045056741 x[8] + 3.074583868528761 x[9]
   + 1.742194116370514 x[10] + 2.936854830967552 x[11]
   + 2.062745768896309 x[12] + 4.56095525129894 x[13]
   + 2.306686440265232 x[14] + 0.5093965652508622 x[15]
   + 3.619976741662559 x[16] + 1.633651602530161 x[17]
   + 2.177379929043717 x[18] + 4.430759194889191 x[19]
   + 4.313938469277611 x[20] + 2.770072142972678 x[21]
   + 1.815163086317465 x[22] + 3.888546683132025 x[23]
   + 1.865259634163893 x[24] + 1.96413992522452 x[25]
   + 1.478450506858276 x[26] + 0.4808881181789491 x[27]
   + 1.69034549717944 x[28] + 1.267332412092098 x[29]
   + 3.984865568302581 x[30] + 4.065173566594922 x[31]
   + 3.935642840716056 x[32] + 2.30254540586475 x[33]
   + 0.6468224910683892 x[34] + 0.9321401137394291 x[35]
   + 2.454488565015174 x[36] + 3.431545037863175 x[37]
   + 4.141104259481184 x[38] + 2.47176891356148 x[39]
   + 1.788196154956002 x[40] + 2.350125062881501 x[41]
   + 4.259100697376924 x[42] + 2.844816582968553 x[43]
   + 1.654222925111285 x[44] + 2.512031247338758 x[45]
   + 2.579975323615548 x[46] + 0.0557793078009141 x[47]
   + 3.908253277852092 x[48] + 4.10141145224334 x[49]
   + 3.571014677338193 x[50] + 3.176987272132383 x[51]
   + 3.665693252135164 x[52] + 4.021465459679745 x[53]
   + 4.375275575104483 x[54] + 4.229753112053665 x[55]
   + 0.1792357348903007 x[56] + 4.022344794927156 x[57]
   + 1.637524334014095 x[58] + 0.7502176631472773 x[59]
   + 0.6921790768977297 x[60] + 1.196172516211908 x[61]
   + 1.327977075034953 x[62] + 4.028592388299728 x[63]
   + 4.197836665073623 x[64] + 3.875776620593374 x[65]
   + 3.163106842629855 x[66] + 0.3450726883848276 x[67]
   + 3.86966219215887 x[68] + 4.573548586689779 x[69]
   + 3.73230521707832 x[70] + 0.7783786527098522 x[71]
   + 2.170999300504784 x[72] + 0.0952639600596061 x[73]
   + 2.24370581597063 x[74] + 2.518376051957677 x[75]
   + 4.393471609717687 x[76] + 2.06317864777873 x[77]
   + 0.1826097654691191 x[78] + 4.09558627869072 x[79]
   + 2.650529729506697 x[80] + 3.455827128629247 x[81]
   + 3.464656978148572 x[82] + 1.466226686034126 x[83]
   + 4.57052971601775 x[84] + 4.07636791845795 x[85]
   + 0.1420280462420203 x[86] + 4.559424589504357 x[87]
   + 3.709024624850031 x[88] + 1.212501251151039 x[89]
   + 4.578761771680519 x[90] + 1.443577031975312 x[91]
   + 1.722559971692446 x[92] + 1.963325407879281 x[93]
   + 0.2044173536649662 x[94] + 1.315900952824843 x[95]
   + 4.531282367059207 x[96] + 1.766819213016331 x[97]
   + 1.492520248571455 x[98] + 0.3654080771406022 x[99]
   + 1.876689187406283 x[100] + 4.268974598172372 x[101]
   + 4.196407738889707 x[102] + 4.052593795451876 x[103]
   + 3.534257059868875 x[104] + 0.4330444221296073 x[105]
   + 3.955112164355996 x[106] + 1.730846992431627 x[107]
   + 2.775340412564449 x[108] + 3.433135215470486 x[109]
   + 3.007420905987867 x[110] + 3.342971600685631 x[111]
   + 1.094502773960916 x[112] + 4.4439594828409 x[113]
   + 2.342780826050487 x[114] + 4.105087069734426 x[115]
   + 2.259132765150691 x[116] + 1.354119258211867 x[117]
   + 0.00979952547997804 x[118] + 4.033652653357017 x[119]
   + 0.781731470067241 x[120] + 3.379787916098539 x[121]
   + 3.742652289278174 x[122] + 2.319706529351835 x[123]
   + 0.6625470599265345 x[124] + 0.348017725701975 x[125]
   + 2.332230446507047 x[126] + 1.006939125316213 x[127]
   + 2.581880046991207 x[128] + 0.2670287556120618 x[129] + 14 u[0]
   + 86 u[1] + 92 u[2] + 61 u[3] + 58 u[4] + 44 u[5] + 35 u[6] + 98 u[7]
   + 59 u[8] + 4 u[9] + 98 u[10] + 65 u[11] + 42 u[12] + 42 u[13] + 7 u[14]
   + 35 u[15] + 15 u[16] + 50 u[17] + 59 u[18] + 16 u[19] + 95 u[20]
   + 66 u[21] + 14 u[22] + 61 u[23] + 23 u[24] + 74 u[25] + 36 u[26]
   + 26 u[27] + 40 u[28] + 73 u[29] + 84 u[30] + 2 u[31] + 34 u[32]
   + 51 u[33] + 86 u[34] + 7 u[35] + 26 u[36] + 35 u[37] + 50 u[38]
   + 5 u[39] + 65 u[40] + 24 u[41] + 8 u[42] + 84 u[43] + 85 u[44]
   + 85 u[45] + 80 u[46] + 64 u[47] + 45 u[48] + 82 u[49] + 33 u[50]
   + 94 u[51] + 67 u[52] + 6 u[53] + 47 u[54] + 46 u[55] + 15 u[56]
   + 73 u[57] + 10 u[58] + 8 u[59] + 11 u[60] + 89 u[61] + 46 u[62]
   + 57 u[63] + 90 u[64] + 46 u[65] + 11 u[66] + 89 u[67] + 2 u[68]
   + 36 u[69] + 40 u[70] + 76 u[71] + 48 u[72] + 41 u[73] + 66 u[74]
   + 83 u[75] + 65 u[76] + 33 u[77] + 87 u[78] + 9 u[79] + 80 u[80]
   + 96 u[81] + 9 u[82] + 88 u[83] + 64 u[84] + 60 u[85] + 82 u[86]
   + 42 u[87] + 68 u[88] + 29 u[89] + 47 u[90] + 55 u[91] + 23 u[92]
   + 38 u[93] + 90 u[94] + 91 u[95] + 51 u[96] + 63 u[97] + 18 u[98]
   + 58 u[99] + 79 u[100] + 18 u[101] + 36 u[102] + 98 u[103] + 59 u[104]
   + 12 u[105] + 97 u[106] + 17 u[107] + 57 u[108] + 75 u[109] + 21 u[110]
   + 73 u[111] + 23 u[112] + 55 u[113] + 91 u[114] + 21 u[115] + 53 u[116]
   + 7 u[117] + 55 u[118] + 23 u[119] + 86 u[120] + 47 u[121] + 58 u[122]
   + 21 u[123] + 3 u[124] + 21 u[125] + 98 u[126] + 94 u[127] + 37 u[128]
   + 53 u[129] <= 27046
 mccormick1[0]: - u[0] + r[0] <= 0
 mccormick1[1]: - u[1] + r[1] <= 0
 mccormick1[2]: - u[2] + r[2] <= 0
 mccormick1[3]: - u[3] + r[3] <= 0
 mccormick1[4]: - u[4] + r[4] <= 0
 mccormick1[5]: - u[5] + r[5] <= 0
 mccormick1[6]: - u[6] + r[6] <= 0
 mccormick1[7]: - u[7] + r[7] <= 0
 mccormick1[8]: - u[8] + r[8] <= 0
 mccormick1[9]: - u[9] + r[9] <= 0
 mccormick1[10]: - u[10] + r[10] <= 0
 mccormick1[11]: - u[11] + r[11] <= 0
 mccormick1[12]: - u[12] + r[12] <= 0
 mccormick1[13]: - u[13] + r[13] <= 0
 mccormick1[14]: - u[14] + r[14] <= 0
 mccormick1[15]: - u[15] + r[15] <= 0
 mccormick1[16]: - u[16] + r[16] <= 0
 mccormick1[17]: - u[17] + r[17] <= 0
 mccormick1[18]: - u[18] + r[18] <= 0
 mccormick1[19]: - u[19] + r[19] <= 0
 mccormick1[20]: - u[20] + r[20] <= 0
 mccormick1[21]: - u[21] + r[21] <= 0
 mccormick1[22]: - u[22] + r[22] <= 0
 mccormick1[23]: - u[23] + r[23] <= 0
 mccormick1[24]: - u[24] + r[24] <= 0
 mccormick1[25]: - u[25] + r[25] <= 0
 mccormick1[26]: - u[26] + r[26] <= 0
 mccormick1[27]: - u[27] + r[27] <= 0
 mccormick1[28]: - u[28] + r[28] <= 0
 mccormick1[29]: - u[29] + r[29] <= 0
 mccormick1[30]: - u[30] + r[30] <= 0
 mccormick1[31]: - u[31] + r[31] <= 0
 mccormick1[32]: - u[32] + r[32] <= 0
 mccormick1[33]: - u[33] + r[33] <= 0
 mccormick1[34]: - u[34] + r[34] <= 0
 mccormick1[35]: - u[35] + r[35] <= 0
 mccormick1[36]: - u[36] + r[36] <= 0
 mccormick1[37]: - u[37] + r[37] <= 0
 mccormick1[38]: - u[38] + r[38] <= 0
 mccormick1[39]: - u[39] + r[39] <= 0
 mccormick1[40]: - u[40] + r[40] <= 0
 mccormick1[41]: - u[41] + r[41] <= 0
 mccormick1[42]: - u[42] + r[42] <= 0
 mccormick1[43]: - u[43] + r[43] <= 0
 mccormick1[44]: - u[44] + r[44] <= 0
 mccormick1[45]: - u[45] + r[45] <= 0
 mccormick1[46]: - u[46] + r[46] <= 0
 mccormick1[47]: - u[47] + r[47] <= 0
 mccormick1[48]: - u[48] + r[48] <= 0
 mccormick1[49]: - u[49] + r[49] <= 0
 mccormick1[50]: - u[50] + r[50] <= 0
 mccormick1[51]: - u[51] + r[51] <= 0
 mccormick1[52]: - u[52] + r[52] <= 0
 mccormick1[53]: - u[53] + r[53] <= 0
 mccormick1[54]: - u[54] + r[54] <= 0
 mccormick1[55]: - u[55] + r[55] <= 0
 mccormick1[56]: - u[56] + r[56] <= 0
 mccormick1[57]: - u[57] + r[57] <= 0
 mccormick1[58]: - u[58] + r[58] <= 0
 mccormick1[59]: - u[59] + r[59] <= 0
 mccormick1[60]: - u[60] + r[60] <= 0
 mccormick1[61]: - u[61] + r[61] <= 0
 mccormick1[62]: - u[62] + r[62] <= 0
 mccormick1[63]: - u[63] + r[63] <= 0
 mccormick1[64]: - u[64] + r[64] <= 0
 mccormick1[65]: - u[65] + r[65] <= 0
 mccormick1[66]: - u[66] + r[66] <= 0
 mccormick1[67]: - u[67] + r[67] <= 0
 mccormick1[68]: - u[68] + r[68] <= 0
 mccormick1[69]: - u[69] + r[69] <= 0
 mccormick1[70]: - u[70] + r[70] <= 0
 mccormick1[71]: - u[71] + r[71] <= 0
 mccormick1[72]: - u[72] + r[72] <= 0
 mccormick1[73]: - u[73] + r[73] <= 0
 mccormick1[74]: - u[74] + r[74] <= 0
 mccormick1[75]: - u[75] + r[75] <= 0
 mccormick1[76]: - u[76] + r[76] <= 0
 mccormick1[77]: - u[77] + r[77] <= 0
 mccormick1[78]: - u[78] + r[78] <= 0
 mccormick1[79]: - u[79] + r[79] <= 0
 mccormick1[80]: - u[80] + r[80] <= 0
 mccormick1[81]: - u[81] + r[81] <= 0
 mccormick1[82]: - u[82] + r[82] <= 0
 mccormick1[83]: - u[83] + r[83] <= 0
 mccormick1[84]: - u[84] + r[84] <= 0
 mccormick1[85]: - u[85] + r[85] <= 0
 mccormick1[86]: - u[86] + r[86] <= 0
 mccormick1[87]: - u[87] + r[87] <= 0
 mccormick1[88]: - u[88] + r[88] <= 0
 mccormick1[89]: - u[89] + r[89] <= 0
 mccormick1[90]: - u[90] + r[90] <= 0
 mccormick1[91]: - u[91] + r[91] <= 0
 mccormick1[92]: - u[92] + r[92] <= 0
 mccormick1[93]: - u[93] + r[93] <= 0
 mccormick1[94]: - u[94] + r[94] <= 0
 mccormick1[95]: - u[95] + r[95] <= 0
 mccormick1[96]: - u[96] + r[96] <= 0
 mccormick1[97]: - u[97] + r[97] <= 0
 mccormick1[98]: - u[98] + r[98] <= 0
 mccormick1[99]: - u[99] + r[99] <= 0
 mccormick1[100]: - u[100] + r[100] <= 0
 mccormick1[101]: - u[101] + r[101] <= 0
 mccormick1[102]: - u[102] + r[102] <= 0
 mccormick1[103]: - u[103] + r[103] <= 0
 mccormick1[104]: - u[104] + r[104] <= 0
 mccormick1[105]: - u[105] + r[105] <= 0
 mccormick1[106]: - u[106] + r[106] <= 0
 mccormick1[107]: - u[107] + r[107] <= 0
 mccormick1[108]: - u[108] + r[108] <= 0
 mccormick1[109]: - u[109] + r[109] <= 0
 mccormick1[110]: - u[110] + r[110] <= 0
 mccormick1[111]: - u[111] + r[111] <= 0
 mccormick1[112]: - u[112] + r[112] <= 0
 mccormick1[113]: - u[113] + r[113] <= 0
 mccormick1[114]: - u[114] + r[114] <= 0
 mccormick1[115]: - u[115] + r[115] <= 0
 mccormick1[116]: - u[116] + r[116] <= 0
 mccormick1[117]: - u[117] + r[117] <= 0
 mccormick1[118]: - u[118] + r[118] <= 0
 mccormick1[119]: - u[119] + r[119] <= 0
 mccormick1[120]: - u[120] + r[120] <= 0
 mccormick1[121]: - u[121] + r[121] <= 0
 mccormick1[122]: - u[122] + r[122] <= 0
 mccormick1[123]: - u[123] + r[123] <= 0
 mccormick1[124]: - u[124] + r[124] <= 0
 mccormick1[125]: - u[125] + r[125] <= 0
 mccormick1[126]: - u[126] + r[126] <= 0
 mccormick1[127]: - u[127] + r[127] <= 0
 mccormick1[128]: - u[128] + r[128] <= 0
 mccormick1[129]: - u[129] + r[129] <= 0
 mccormick2[0]: - x[0] + r[0] <= 0
 mccormick2[1]: - x[1] + r[1] <= 0
 mccormick2[2]: - x[2] + r[2] <= 0
 mccormick2[3]: - x[3] + r[3] <= 0
 mccormick2[4]: - x[4] + r[4] <= 0
 mccormick2[5]: - x[5] + r[5] <= 0
 mccormick2[6]: - x[6] + r[6] <= 0
 mccormick2[7]: - x[7] + r[7] <= 0
 mccormick2[8]: - x[8] + r[8] <= 0
 mccormick2[9]: - x[9] + r[9] <= 0
 mccormick2[10]: - x[10] + r[10] <= 0
 mccormick2[11]: - x[11] + r[11] <= 0
 mccormick2[12]: - x[12] + r[12] <= 0
 mccormick2[13]: - x[13] + r[13] <= 0
 mccormick2[14]: - x[14] + r[14] <= 0
 mccormick2[15]: - x[15] + r[15] <= 0
 mccormick2[16]: - x[16] + r[16] <= 0
 mccormick2[17]: - x[17] + r[17] <= 0
 mccormick2[18]: - x[18] + r[18] <= 0
 mccormick2[19]: - x[19] + r[19] <= 0
 mccormick2[20]: - x[20] + r[20] <= 0
 mccormick2[21]: - x[21] + r[21] <= 0
 mccormick2[22]: - x[22] + r[22] <= 0
 mccormick2[23]: - x[23] + r[23] <= 0
 mccormick2[24]: - x[24] + r[24] <= 0
 mccormick2[25]: - x[25] + r[25] <= 0
 mccormick2[26]: - x[26] + r[26] <= 0
 mccormick2[27]: - x[27] + r[27] <= 0
 mccormick2[28]: - x[28] + r[28] <= 0
 mccormick2[29]: - x[29] + r[29] <= 0
 mccormick2[30]: - x[30] + r[30] <= 0
 mccormick2[31]: - x[31] + r[31] <= 0
 mccormick2[32]: - x[32] + r[32] <= 0
 mccormick2[33]: - x[33] + r[33] <= 0
 mccormick2[34]: - x[34] + r[34] <= 0
 mccormick2[35]: - x[35] + r[35] <= 0
 mccormick2[36]: - x[36] + r[36] <= 0
 mccormick2[37]: - x[37] + r[37] <= 0
 mccormick2[38]: - x[38] + r[38] <= 0
 mccormick2[39]: - x[39] + r[39] <= 0
 mccormick2[40]: - x[40] + r[40] <= 0
 mccormick2[41]: - x[41] + r[41] <= 0
 mccormick2[42]: - x[42] + r[42] <= 0
 mccormick2[43]: - x[43] + r[43] <= 0
 mccormick2[44]: - x[44] + r[44] <= 0
 mccormick2[45]: - x[45] + r[45] <= 0
 mccormick2[46]: - x[46] + r[46] <= 0
 mccormick2[47]: - x[47] + r[47] <= 0
 mccormick2[48]: - x[48] + r[48] <= 0
 mccormick2[49]: - x[49] + r[49] <= 0
 mccormick2[50]: - x[50] + r[50] <= 0
 mccormick2[51]: - x[51] + r[51] <= 0
 mccormick2[52]: - x[52] + r[52] <= 0
 mccormick2[53]: - x[53] + r[53] <= 0
 mccormick2[54]: - x[54] + r[54] <= 0
 mccormick2[55]: - x[55] + r[55] <= 0
 mccormick2[56]: - x[56] + r[56] <= 0
 mccormick2[57]: - x[57] + r[57] <= 0
 mccormick2[58]: - x[58] + r[58] <= 0
 mccormick2[59]: - x[59] + r[59] <= 0
 mccormick2[60]: - x[60] + r[60] <= 0
 mccormick2[61]: - x[61] + r[61] <= 0
 mccormick2[62]: - x[62] + r[62] <= 0
 mccormick2[63]: - x[63] + r[63] <= 0
 mccormick2[64]: - x[64] + r[64] <= 0
 mccormick2[65]: - x[65] + r[65] <= 0
 mccormick2[66]: - x[66] + r[66] <= 0
 mccormick2[67]: - x[67] + r[67] <= 0
 mccormick2[68]: - x[68] + r[68] <= 0
 mccormick2[69]: - x[69] + r[69] <= 0
 mccormick2[70]: - x[70] + r[70] <= 0
 mccormick2[71]: - x[71] + r[71] <= 0
 mccormick2[72]: - x[72] + r[72] <= 0
 mccormick2[73]: - x[73] + r[73] <= 0
 mccormick2[74]: - x[74] + r[74] <= 0
 mccormick2[75]: - x[75] + r[75] <= 0
 mccormick2[76]: - x[76] + r[76] <= 0
 mccormick2[77]: - x[77] + r[77] <= 0
 mccormick2[78]: - x[78] + r[78] <= 0
 mccormick2[79]: - x[79] + r[79] <= 0
 mccormick2[80]: - x[80] + r[80] <= 0
 mccormick2[81]: - x[81] + r[81] <= 0
 mccormick2[82]: - x[82] + r[82] <= 0
 mccormick2[83]: - x[83] + r[83] <= 0
 mccormick2[84]: - x[84] + r[84] <= 0
 mccormick2[85]: - x[85] + r[85] <= 0
 mccormick2[86]: - x[86] + r[86] <= 0
 mccormick2[87]: - x[87] + r[87] <= 0
 mccormick2[88]: - x[88] + r[88] <= 0
 mccormick2[89]: - x[89] + r[89] <= 0
 mccormick2[90]: - x[90] + r[90] <= 0
 mccormick2[91]: - x[91] + r[91] <= 0
 mccormick2[92]: - x[92] + r[92] <= 0
 mccormick2[93]: - x[93] + r[93] <= 0
 mccormick2[94]: - x[94] + r[94] <= 0
 mccormick2[95]: - x[95] + r[95] <= 0
 mccormick2[96]: - x[96] + r[96] <= 0
 mccormick2[97]: - x[97] + r[97] <= 0
 mccormick2[98]: - x[98] + r[98] <= 0
 mccormick2[99]: - x[99] + r[99] <= 0
 mccormick2[100]: - x[100] + r[100] <= 0
 mccormick2[101]: - x[101] + r[101] <= 0
 mccormick2[102]: - x[102] + r[102] <= 0
 mccormick2[103]: - x[103] + r[103] <= 0
 mccormick2[104]: - x[104] + r[104] <= 0
 mccormick2[105]: - x[105] + r[105] <= 0
 mccormick2[106]: - x[106] + r[106] <= 0
 mccormick2[107]: - x[107] + r[107] <= 0
 mccormick2[108]: - x[108] + r[108] <= 0
 mccormick2[109]: - x[109] + r[109] <= 0
 mccormick2[110]: - x[110] + r[110] <= 0
 mccormick2[111]: - x[111] + r[111] <= 0
 mccormick2[112]: - x[112] + r[112] <= 0
 mccormick2[113]: - x[113] + r[113] <= 0
 mccormick2[114]: - x[114] + r[114] <= 0
 mccormick2[115]: - x[115] + r[115] <= 0
 mccormick2[116]: - x[116] + r[116] <= 0
 mccormick2[117]: - x[117] + r[117] <= 0
 mccormick2[118]: - x[118] + r[118] <= 0
 mccormick2[119]: - x[119] + r[119] <= 0
 mccormick2[120]: - x[120] + r[120] <= 0
 mccormick2[121]: - x[121] + r[121] <= 0
 mccormick2[122]: - x[122] + r[122] <= 0
 mccormick2[123]: - x[123] + r[123] <= 0
 mccormick2[124]: - x[124] + r[124] <= 0
 mccormick2[125]: - x[125] + r[125] <= 0
 mccormick2[126]: - x[126] + r[126] <= 0
 mccormick2[127]: - x[127] + r[127] <= 0
 mccormick2[128]: - x[128] + r[128] <= 0
 mccormick2[129]: - x[129] + r[129] <= 0
 mccormick3[0]: x[0] + u[0] - r[0] <= 1
 mccormick3[1]: x[1] + u[1] - r[1] <= 1
 mccormick3[2]: x[2] + u[2] - r[2] <= 1
 mccormick3[3]: x[3] + u[3] - r[3] <= 1
 mccormick3[4]: x[4] + u[4] - r[4] <= 1
 mccormick3[5]: x[5] + u[5] - r[5] <= 1
 mccormick3[6]: x[6] + u[6] - r[6] <= 1
 mccormick3[7]: x[7] + u[7] - r[7] <= 1
 mccormick3[8]: x[8] + u[8] - r[8] <= 1
 mccormick3[9]: x[9] + u[9] - r[9] <= 1
 mccormick3[10]: x[10] + u[10] - r[10] <= 1
 mccormick3[11]: x[11] + u[11] - r[11] <= 1
 mccormick3[12]: x[12] + u[12] - r[12] <= 1
 mccormick3[13]: x[13] + u[13] - r[13] <= 1
 mccormick3[14]: x[14] + u[14] - r[14] <= 1
 mccormick3[15]: x[15] + u[15] - r[15] <= 1
 mccormick3[16]: x[16] + u[16] - r[16] <= 1
 mccormick3[17]: x[17] + u[17] - r[17] <= 1
 mccormick3[18]: x[18] + u[18] - r[18] <= 1
 mccormick3[19]: x[19] + u[19] - r[19] <= 1
 mccormick3[20]: x[20] + u[20] - r[20] <= 1
 mccormick3[21]: x[21] + u[21] - r[21] <= 1
 mccormick3[22]: x[22] + u[22] - r[22] <= 1
 mccormick3[23]: x[23] + u[23] - r[23] <= 1
 mccormick3[24]: x[24] + u[24] - r[24] <= 1
 mccormick3[25]: x[25] + u[25] - r[25] <= 1
 mccormick3[26]: x[26] + u[26] - r[26] <= 1
 mccormick3[27]: x[27] + u[27] - r[27] <= 1
 mccormick3[28]: x[28] + u[28] - r[28] <= 1
 mccormick3[29]: x[29] + u[29] - r[29] <= 1
 mccormick3[30]: x[30] + u[30] - r[30] <= 1
 mccormick3[31]: x[31] + u[31] - r[31] <= 1
 mccormick3[32]: x[32] + u[32] - r[32] <= 1
 mccormick3[33]: x[33] + u[33] - r[33] <= 1
 mccormick3[34]: x[34] + u[34] - r[34] <= 1
 mccormick3[35]: x[35] + u[35] - r[35] <= 1
 mccormick3[36]: x[36] + u[36] - r[36] <= 1
 mccormick3[37]: x[37] + u[37] - r[37] <= 1
 mccormick3[38]: x[38] + u[38] - r[38] <= 1
 mccormick3[39]: x[39] + u[39] - r[39] <= 1
 mccormick3[40]: x[40] + u[40] - r[40] <= 1
 mccormick3[41]: x[41] + u[41] - r[41] <= 1
 mccormick3[42]: x[42] + u[42] - r[42] <= 1
 mccormick3[43]: x[43] + u[43] - r[43] <= 1
 mccormick3[44]: x[44] + u[44] - r[44] <= 1
 mccormick3[45]: x[45] + u[45] - r[45] <= 1
 mccormick3[46]: x[46] + u[46] - r[46] <= 1
 mccormick3[47]: x[47] + u[47] - r[47] <= 1
 mccormick3[48]: x[48] + u[48] - r[48] <= 1
 mccormick3[49]: x[49] + u[49] - r[49] <= 1
 mccormick3[50]: x[50] + u[50] - r[50] <= 1
 mccormick3[51]: x[51] + u[51] - r[51] <= 1
 mccormick3[52]: x[52] + u[52] - r[52] <= 1
 mccormick3[53]: x[53] + u[53] - r[53] <= 1
 mccormick3[54]: x[54] + u[54] - r[54] <= 1
 mccormick3[55]: x[55] + u[55] - r[55] <= 1
 mccormick3[56]: x[56] + u[56] - r[56] <= 1
 mccormick3[57]: x[57] + u[57] - r[57] <= 1
 mccormick3[58]: x[58] + u[58] - r[58] <= 1
 mccormick3[59]: x[59] + u[59] - r[59] <= 1
 mccormick3[60]: x[60] + u[60] - r[60] <= 1
 mccormick3[61]: x[61] + u[61] - r[61] <= 1
 mccormick3[62]: x[62] + u[62] - r[62] <= 1
 mccormick3[63]: x[63] + u[63] - r[63] <= 1
 mccormick3[64]: x[64] + u[64] - r[64] <= 1
 mccormick3[65]: x[65] + u[65] - r[65] <= 1
 mccormick3[66]: x[66] + u[66] - r[66] <= 1
 mccormick3[67]: x[67] + u[67] - r[67] <= 1
 mccormick3[68]: x[68] + u[68] - r[68] <= 1
 mccormick3[69]: x[69] + u[69] - r[69] <= 1
 mccormick3[70]: x[70] + u[70] - r[70] <= 1
 mccormick3[71]: x[71] + u[71] - r[71] <= 1
 mccormick3[72]: x[72] + u[72] - r[72] <= 1
 mccormick3[73]: x[73] + u[73] - r[73] <= 1
 mccormick3[74]: x[74] + u[74] - r[74] <= 1
 mccormick3[75]: x[75] + u[75] - r[75] <= 1
 mccormick3[76]: x[76] + u[76] - r[76] <= 1
 mccormick3[77]: x[77] + u[77] - r[77] <= 1
 mccormick3[78]: x[78] + u[78] - r[78] <= 1
 mccormick3[79]: x[79] + u[79] - r[79] <= 1
 mccormick3[80]: x[80] + u[80] - r[80] <= 1
 mccormick3[81]: x[81] + u[81] - r[81] <= 1
 mccormick3[82]: x[82] + u[82] - r[82] <= 1
 mccormick3[83]: x[83] + u[83] - r[83] <= 1
 mccormick3[84]: x[84] + u[84] - r[84] <= 1
 mccormick3[85]: x[85] + u[85] - r[85] <= 1
 mccormick3[86]: x[86] + u[86] - r[86] <= 1
 mccormick3[87]: x[87] + u[87] - r[87] <= 1
 mccormick3[88]: x[88] + u[88] - r[88] <= 1
 mccormick3[89]: x[89] + u[89] - r[89] <= 1
 mccormick3[90]: x[90] + u[90] - r[90] <= 1
 mccormick3[91]: x[91] + u[91] - r[91] <= 1
 mccormick3[92]: x[92] + u[92] - r[92] <= 1
 mccormick3[93]: x[93] + u[93] - r[93] <= 1
 mccormick3[94]: x[94] + u[94] - r[94] <= 1
 mccormick3[95]: x[95] + u[95] - r[95] <= 1
 mccormick3[96]: x[96] + u[96] - r[96] <= 1
 mccormick3[97]: x[97] + u[97] - r[97] <= 1
 mccormick3[98]: x[98] + u[98] - r[98] <= 1
 mccormick3[99]: x[99] + u[99] - r[99] <= 1
 mccormick3[100]: x[100] + u[100] - r[100] <= 1
 mccormick3[101]: x[101] + u[101] - r[101] <= 1
 mccormick3[102]: x[102] + u[102] - r[102] <= 1
 mccormick3[103]: x[103] + u[103] - r[103] <= 1
 mccormick3[104]: x[104] + u[104] - r[104] <= 1
 mccormick3[105]: x[105] + u[105] - r[105] <= 1
 mccormick3[106]: x[106] + u[106] - r[106] <= 1
 mccormick3[107]: x[107] + u[107] - r[107] <= 1
 mccormick3[108]: x[108] + u[108] - r[108] <= 1
 mccormick3[109]: x[109] + u[109] - r[109] <= 1
 mccormick3[110]: x[110] + u[110] - r[110] <= 1
 mccormick3[111]: x[111] + u[111] - r[111] <= 1
 mccormick3[112]: x[112] + u[112] - r[112] <= 1
 mccormick3[113]: x[113] + u[113] - r[113] <= 1
 mccormick3[114]: x[114] + u[114] - r[114] <= 1
 mccormick3[115]: x[115] + u[115] - r[115] <= 1
 mccormick3[116]: x[116] + u[116] - r[116] <= 1
 mccormick3[117]: x[117] + u[117] - r[117] <= 1
 mccormick3[118]: x[118] + u[118] - r[118] <= 1
 mccormick3[119]: x[119] + u[119] - r[119] <= 1
 mccormick3[120]: x[120] + u[120] - r[120] <= 1
 mccormick3[121]: x[121] + u[121] - r[121] <= 1
 mccormick3[122]: x[122] + u[122] - r[122] <= 1
 mccormick3[123]: x[123] + u[123] - r[123] <= 1
 mccormick3[124]: x[124] + u[124] - r[124] <= 1
 mccormick3[125]: x[125] + u[125] - r[125] <= 1
 mccormick3[126]: x[126] + u[126] - r[126] <= 1
 mccormick3[127]: x[127] + u[127] - r[127] <= 1
 mccormick3[128]: x[128] + u[128] - r[128] <= 1
 mccormick3[129]: x[129] + u[129] - r[129] <= 1
Bounds
Binaries
 x[0] x[1] x[2] x[3] x[4] x[5] x[6] x[7] x[8] x[9] x[10] x[11] x[12] x[13]
 x[14] x[15] x[16] x[17] x[18] x[19] x[20] x[21] x[22] x[23] x[24] x[25]
 x[26] x[27] x[28] x[29] x[30] x[31] x[32] x[33] x[34] x[35] x[36] x[37]
 x[38] x[39] x[40] x[41] x[42] x[43] x[44] x[45] x[46] x[47] x[48] x[49]
 x[50] x[51] x[52] x[53] x[54] x[55] x[56] x[57] x[58] x[59] x[60] x[61]
 x[62] x[63] x[64] x[65] x[66] x[67] x[68] x[69] x[70] x[71] x[72] x[73]
 x[74] x[75] x[76] x[77] x[78] x[79] x[80] x[81] x[82] x[83] x[84] x[85]
 x[86] x[87] x[88] x[89] x[90] x[91] x[92] x[93] x[94] x[95] x[96] x[97]
 x[98] x[99] x[100] x[101] x[102] x[103] x[104] x[105] x[106] x[107] x[108]
 x[109] x[110] x[111] x[112] x[113] x[114] x[115] x[116] x[117] x[118]
 x[119] x[120] x[121] x[122] x[123] x[124] x[125] x[126] x[127] x[128]
 x[129] u[0] u[1] u[2] u[3] u[4] u[5] u[6] u[7] u[8] u[9] u[10] u[11] u[12]
 u[13] u[14] u[15] u[16] u[17] u[18] u[19] u[20] u[21] u[22] u[23] u[24]
 u[25] u[26] u[27] u[28] u[29] u[30] u[31] u[32] u[33] u[34] u[35] u[36]
 u[37] u[38] u[39] u[40] u[41] u[42] u[43] u[44] u[45] u[46] u[47] u[48]
 u[49] u[50] u[51] u[52] u[53] u[54] u[55] u[56] u[57] u[58] u[59] u[60]
 u[61] u[62] u[63] u[64] u[65] u[66] u[67] u[68] u[69] u[70] u[71] u[72]
 u[73] u[74] u[75] u[76] u[77] u[78] u[79] u[80] u[81] u[82] u[83] u[84]
 u[85] u[86] u[87] u[88] u[89] u[90] u[91] u[92] u[93] u[94] u[95] u[96]
 u[97] u[98] u[99] u[100] u[101] u[102] u[103] u[104] u[105] u[106] u[107]
 u[108] u[109] u[110] u[111] u[112] u[113] u[114] u[115] u[116] u[117]
 u[118] u[119] u[120] u[121] u[122] u[123] u[124] u[125] u[126] u[127]
 u[128] u[129] r[0] r[1] r[2] r[3] r[4] r[5] r[6] r[7] r[8] r[9] r[10]
 r[11] r[12] r[13] r[14] r[15] r[16] r[17] r[18] r[19] r[20] r[21] r[22]
 r[23] r[24] r[25] r[26] r[27] r[28] r[29] r[30] r[31] r[32] r[33] r[34]
 r[35] r[36] r[37] r[38] r[39] r[40] r[41] r[42] r[43] r[44] r[45] r[46]
 r[47] r[48] r[49] r[50] r[51] r[52] r[53] r[54] r[55] r[56] r[57] r[58]
 r[59] r[60] r[61] r[62] r[63] r[64] r[65] r[66] r[67] r[68] r[69] r[70]
 r[71] r[72] r[73] r[74] r[75] r[76] r[77] r[78] r[79] r[80] r[81] r[82]
 r[83] r[84] r[85] r[86] r[87] r[88] r[89] r[90] r[91] r[92] r[93] r[94]
 r[95] r[96] r[97] r[98] r[99] r[100] r[101] r[102] r[103] r[104] r[105]
 r[106] r[107] r[108] r[109] r[110] r[111] r[112] r[113] r[114] r[115]
 r[116] r[117] r[118] r[119] r[120] r[121] r[122] r[123] r[124] r[125]
 r[126] r[127] r[128] r[129]
End
