instances/knapsack/discrete/knapsack_130_15.kp
78132
130
618

5 0.5 35
53 5.3 64
47 4.7 17
96 9.6 33
49 4.9 51
39 3.9 74
82 8.2 99
77 7.7 37
6 0.6 60
7 0.7 68
9 0.9 20
64 6.4 64
29 2.9 20
61 6.1 15
38 3.8 36
10 1.0 97
38 3.8 83
57 5.7 67
38 3.8 32
19 1.9 67
42 4.2 71
81 8.1 28
33 3.3 61
68 6.8 21
14 1.4 62
9 0.9 12
31 3.1 89
17 1.7 37
95 9.5 87
96 9.6 54
59 5.9 22
25 2.5 37
73 7.3 45
78 7.8 44
85 8.5 37
86 8.6 66
61 6.1 10
50 5.0 4
65 6.5 60
88 8.8 41
80 8.0 89
47 4.7 87
43 4.3 23
59 5.9 28
72 7.2 8
24 2.4 92
19 1.9 70
27 2.7 2
92 9.2 86
53 5.3 63
56 5.6 12
41 4.1 60
50 5.0 80
93 9.3 98
34 3.4 69
93 9.3 31
10 1.0 24
48 4.8 29
93 9.3 81
39 3.9 40
2 0.2 69
80 8.0 11
33 3.3 31
64 6.4 51
5 0.5 80
33 3.3 82
66 6.6 50
12 1.2 47
57 5.7 78
27 2.7 27
11 1.1 66
19 1.9 96
79 7.9 70
32 3.2 43
13 1.3 68
46 4.6 31
100 10.0 99
20 2.0 94
58 5.8 13
84 8.4 37
15 1.5 44
87 8.7 51
80 8.0 3
27 2.7 59
31 3.1 22
19 1.9 18
81 8.1 59
33 3.3 84
43 4.3 1
80 8.0 96
38 3.8 59
22 2.2 99
90 9.0 31
13 1.3 94
81 8.1 33
62 6.2 64
58 5.8 82
2 0.2 81
65 6.5 18
37 3.7 90
38 3.8 34
69 6.9 79
79 7.9 52
49 4.9 71
62 6.2 36
67 6.7 92
24 2.4 23
32 3.2 10
80 8.0 35
6 0.6 74
96 9.6 71
72 7.2 19
54 5.4 39
42 4.2 77
14 1.4 39
16 1.6 42
12 1.2 56
18 1.8 86
70 7.0 55
94 9.4 100
33 3.3 23
42 4.2 4
89 8.9 95
84 8.4 40
42 4.2 13
72 7.2 38
25 2.5 94
61 6.1 99
96 9.6 85
100 10.0 58

27046
624

[3.131159744037969 0.9324183037927067 2.7185359485638427 4.299381103014127 1.80010476758887 4.287972383444695 2.447673250504459 4.414419946611433 2.1564120450567406 3.0745838685287605 1.7421941163705141 2.9368548309675524 2.062745768896309 4.56095525129894 2.306686440265232 0.5093965652508622 3.6199767416625592 1.6336516025301606 2.1773799290437172 4.430759194889191 4.313938469277611 2.7700721429726785 1.8151630863174653 3.8885466831320254 1.8652596341638925 1.9641399252245195 1.478450506858276 0.4808881181789491 1.6903454971794396 1.267332412092098 3.9848655683025807 4.065173566594922 3.9356428407160564 2.3025454058647497 0.6468224910683892 0.9321401137394291 2.454488565015174 3.431545037863175 4.1411042594811835 2.4717689135614798 1.7881961549560021 2.350125062881501 4.259100697376924 2.8448165829685528 1.6542229251112854 2.5120312473387583 2.5799753236155483 0.055779307800914064 3.9082532778520918 4.10141145224334 3.571014677338193 3.1769872721323833 3.6656932521351635 4.021465459679745 4.375275575104483 4.229753112053665 0.17923573489030067 4.022344794927156 1.6375243340140946 0.7502176631472773 0.6921790768977297 1.196172516211908 1.3279770750349529 4.028592388299728 4.197836665073623 3.875776620593374 3.163106842629855 0.3450726883848276 3.8696621921588696 4.573548586689779 3.7323052170783204 0.7783786527098522 2.170999300504784 0.09526396005960613 2.24370581597063 2.518376051957677 4.393471609717687 2.0631786477787304 0.18260976546911908 4.09558627869072 2.6505297295066965 3.4558271286292466 3.4646569781485717 1.4662266860341262 4.5705297160177505 4.07636791845795 0.14202804624202034 4.559424589504357 3.7090246248500307 1.2125012511510391 4.578761771680519 1.4435770319753118 1.7225599716924458 1.9633254078792808 0.20441735366496622 1.3159009528248429 4.531282367059207 1.766819213016331 1.492520248571455 0.3654080771406022 1.8766891874062834 4.268974598172372 4.1964077388897065 4.052593795451876 3.534257059868875 0.4330444221296073 3.9551121643559957 1.7308469924316265 2.775340412564449 3.4331352154704855 3.0074209059878667 3.3429716006856314 1.0945027739609163 4.4439594828409 2.342780826050487 4.105087069734426 2.259132765150691 1.354119258211867 0.009799525479978043 4.033652653357017 0.781731470067241 3.379787916098539 3.7426522892781744 2.319706529351835 0.6625470599265345 0.34801772570197503 2.332230446507047 1.006939125316213 2.581880046991207 0.2670287556120618]

[14 86 92 61 58 44 35 98 59 4 98 65 42 42 7 35 15 50 59 16 95 66 14 61 23 74 36 26 40 73 84 2 34 51 86 7 26 35 50 5 65 24 8 84 85 85 80 64 45 82 33 94 67 6 47 46 15 73 10 8 11 89 46 57 90 46 11 89 2 36 40 76 48 41 66 83 65 33 87 9 80 96 9 88 64 60 82 42 68 29 47 55 23 38 90 91 51 63 18 58 79 18 36 98 59 12 97 17 57 75 21 73 23 55 91 21 53 7 55 23 86 47 58 21 3 21 98 94 37 53]
